# Objective value = 1.8098020000005450e+04
I_0_0 3418
I_0_1 4.7540000000004775e+03
I_0_2 4.1660000000006858e+03
I_0_3 4.1340000000007094e+03
I_0_4 4.0719999999976217e+03
I_0_5 3.6599999999998854e+03
I_0_6 4.9960000000006748e+03
I_1_0 27
I_1_1 1.2961481887785453e-10
I_1_2 2.6999999999870379e+01
I_1_3 1.2911272051496780e-10
I_1_4 27
I_1_5 2.6999999999999833e+01
I_1_6 3.4590614590398708e-13
I_2_0 22
I_2_1 1.0583922627205311e-10
I_2_2 2.1999999999894150e+01
I_2_3 1.0728395949399783e-10
I_2_4 22
I_2_5 2.1999999999999865e+01
I_2_6 2.8184945221806355e-13
I_3_0 88
I_3_1 44
I_3_2 8.7999999999970214e+01
I_3_3 4.3999999999446821e+01
I_3_4 8.7999999999495657e+01
I_3_5 8.7999999999999716e+01
I_3_6 4.4000000000000846e+01
I_4_0 49
I_4_1 0
I_4_2 49
I_4_3 0
I_4_4 49
I_4_5 49
I_4_6 0
I_5_0 33
I_5_1 -5.3461522069187946e-12
I_5_2 3.3000000000005336e+01
I_5_3 3.5400060917523387e-13
I_5_4 3.3000000000105537e+01
I_5_5 33
I_5_6 0
I_6_0 36
I_6_1 18
I_6_2 3.6000000000043961e+01
I_6_3 1.8000000000043961e+01
I_6_4 9.0103810365279592e-11
I_6_5 35.9999999999653
I_6_6 1.7999999999965286e+01
I_7_0 138
I_7_1 69
I_7_2 -1.4210854715202004e-13
I_7_3 1.3799999999999295e+02
I_7_4 6.8999999999993022e+01
I_7_5 1.3800000000011653e+02
I_7_6 6.8999999999943938e+01
I_8_0 164
I_8_1 82
I_8_2 2.3666757442697417e-10
I_8_3 164
I_8_4 82
I_8_5 1.6400000000000003e+02
I_8_6 8.1999999999999929e+01
I_9_0 67
I_9_1 0
I_9_2 67
I_9_3 67
I_9_4 5.0567507430204386e-10
I_9_5 67.0000000000543
I_9_6 -5.4349442660070257e-11
I_10_0 120
I_10_1 60
I_10_2 120
I_10_3 5.9999999999999993e+01
I_10_4 -2.3604777175803903e-10
I_10_5 1.1999999999990941e+02
I_10_6 5.9999999999763389e+01
I_11_0 92
I_11_1 2.1715766412571129e-10
I_11_2 92
I_11_3 -2.5757874286024645e-10
I_11_4 92.0000000002576
I_11_5 92
I_11_6 0
I_12_0 48
I_12_1 -5.2389426130616812e-10
I_12_2 4.8000000000523883e+01
I_12_3 4.7999999999151669e+01
I_12_4 8.4833740032763671e-10
I_12_5 48
I_12_6 0
I_13_0 50
I_13_1 -1.55930385424572e-10
I_13_2 5.0000000000156454e+01
I_13_3 -2.4995598571154287e-10
I_13_4 5.0000000000250488e+01
I_13_5 50
I_13_6 0
I_14_0 65
I_14_1 -7.07386217026135e-10
I_14_2 6.5000000000707345e+01
I_14_3 -3.2563556059237179e-10
I_14_4 6.5000000000325642e+01
I_14_5 65
I_14_6 0
I_15_0 57
I_15_1 -1.7132156093827981e-10
I_15_2 5.7000000000171937e+01
I_15_3 57
I_15_4 0
I_15_5 57
I_15_6 0
I_16_0 80
I_16_1 0
I_16_2 80
I_16_3 0
I_16_4 80
I_16_5 80.0000000000005
I_16_6 -1.0249070989747725e-12
I_17_0 36
I_17_1 18
I_17_2 3.5999999999999993e+01
I_17_3 1.8000000000049333e+01
I_17_4 -2.3948420619167266e-11
I_17_5 36
I_17_6 18
I_18_0 162
I_18_1 81
I_18_2 1.6200000000025207e+02
I_18_3 8.1000000000252072e+01
I_18_4 162
I_18_5 8.1000000000649422e+01
I_18_6 6.49379520041626e-10
I_19_0 66
I_19_1 3.2999999999917684e+01
I_19_2 0
I_19_3 66
I_19_4 33
I_19_5 66
I_19_6 33
I_20_0 72
I_20_1 36
I_20_2 1.1403074040572392e-09
I_20_3 7.1999999999242021e+01
I_20_4 7.1999999999993975e+01
I_20_5 3.6000000000002871e+01
I_20_6 2.9771740628348198e-12
I_21_0 62
I_21_1 3.0999999999759510e+01
I_21_2 -2.4047608349064831e-10
I_21_3 6.2000000000000007e+01
I_21_4 3.0999999999759524e+01
I_21_5 6.2000000000811056e+01
I_21_6 3.1000000000476383e+01
I_22_0 154
I_22_1 7.7000000000577671e+01
I_22_2 1.5399999999994037e+02
I_22_3 76.9999999997601
I_22_4 154
I_22_5 7.6999999999791910e+01
I_22_6 -2.0810137806746769e-10
I_23_0 150
I_23_1 7.5000000000399652e+01
I_23_2 -2.0864092675765278e-09
I_23_3 1.5000000000253789e+02
I_23_4 7.5000000002158544e+01
I_23_5 1.4999999999962404e+02
I_23_6 74.9999999996241
I_24_0 96
I_24_1 48
I_24_2 -1.2362590950942831e-09
I_24_3 9.6000000000269864e+01
I_24_4 96
I_24_5 4.8000000000625839e+01
I_24_6 6.2581044756227006e-10
I_25_0 148
I_25_1 7.3999999999981412e+01
I_25_2 1.4799999999998141e+02
I_25_3 1.4799999999915818e+02
I_25_4 1.4799999999967631e+02
I_25_5 148
I_25_6 7.3999999999970711e+01
q_1_0 1.2961481887785453e-10
q_1_1 5.3999999999740766e+01
q_1_2 2.5873347908600408e-10
q_1_3 5.3999999999870887e+01
q_1_4 2.6999999999999833e+01
q_1_5 5.1288368880761063e-13
q_2_0 1.0583922627205311e-10
q_2_1 4.3999999999788315e+01
q_2_2 2.1313351084017995e-10
q_2_3 4.3999999999892715e+01
q_2_4 2.1999999999999865e+01
q_2_5 4.1685257201248258e-13
q_3_0 0
q_3_1 8.7999999999970157e+01
q_3_2 -5.2337867373353220e-10
q_3_3 8.8000000000047322e+01
q_3_4 4.4000000000504095e+01
q_3_5 1.1273978088722493e-12
q_4_0 0
q_4_1 98
q_4_2 0
q_4_3 98
q_4_4 49
q_4_5 0
q_5_0 -5.3461522069187946e-12
q_5_1 6.6000000000010687e+01
q_5_2 -4.9821753363831182e-12
q_5_3 6.6000000000105189e+01
q_5_4 3.2999999999894463e+01
q_5_5 0
q_6_0 0
q_6_1 3.6000000000043961e+01
q_6_2 0
q_6_3 4.6141586147153130e-11
q_6_4 5.3999999999868258e+01
q_6_5 0
q_7_0 0
q_7_1 0
q_7_2 2.0699999999999309e+02
q_7_3 0
q_7_4 1.3800000000012349e+02
q_7_5 -1.7256400315810646e-10
q_8_0 0
q_8_1 2.3669599613640457e-10
q_8_2 2.4599999999976333e+02
q_8_3 0
q_8_4 1.6400000000000003e+02
q_8_5 0
q_9_0 0
q_9_1 134
q_9_2 67
q_9_3 5.0567507430204386e-10
q_9_4 1.3399999999954861e+02
q_9_5 -1.0864911852685711e-10
q_10_0 0
q_10_1 1.1999999999999999e+02
q_10_2 0
q_10_3 -2.3604777175803903e-10
q_10_4 1.8000000000014543e+02
q_10_5 -1.4601342804197979e-10
q_11_0 2.1715766412571129e-10
q_11_1 1.8399999999978286e+02
q_11_2 -2.5757874286024645e-10
q_11_3 1.8400000000051517e+02
q_11_4 91.9999999997424
q_11_5 0
q_12_0 -5.2389426130616812e-10
q_12_1 9.6000000001047781e+01
q_12_2 4.7999999998627786e+01
q_12_3 1.6966685834063355e-09
q_12_4 9.5999999999151669e+01
q_12_5 0
q_13_0 -1.55930385424572e-10
q_13_1 1.0000000000031238e+02
q_13_2 -4.0641039069855933e-10
q_13_3 1.0000000000050045e+02
q_13_4 4.9999999999749512e+01
q_13_5 0
q_14_0 -7.07386217026135e-10
q_14_1 1.3000000000141472e+02
q_14_2 -1.0329808540415515e-09
q_14_3 1.3000000000065128e+02
q_14_4 6.4999999999674358e+01
q_14_5 0
q_15_0 -1.7132156093827981e-10
q_15_1 1.1400000000034325e+02
q_15_2 5.6999999999828063e+01
q_15_3 0
q_15_4 114
q_15_5 0
q_16_0 0
q_16_1 160
q_16_2 0
q_16_3 160
q_16_4 80.0000000000005
q_16_5 -1.5222870140068426e-12
q_17_0 0
q_17_1 36
q_17_2 4.9337708048533733e-11
q_17_3 -7.32864264183034e-11
q_17_4 5.4000000000023952e+01
q_17_5 0
q_18_0 0
q_18_1 1.6200000000025210e+02
q_18_2 0
q_18_3 1.6199999999974790e+02
q_18_4 6.49379520041626e-10
q_18_5 0
q_19_0 -8.2315904093022141e-11
q_19_1 8.2416740099233721e-11
q_19_2 99
q_19_3 0
q_19_4 66
q_19_5 0
q_20_0 0
q_20_1 1.1402896404888452e-09
q_20_2 1.0799999999810171e+02
q_20_3 3.6000000000757751e+01
q_20_4 2.7000623958883807e-13
q_20_5 0
q_21_0 -2.4048904534446081e-10
q_21_1 0
q_21_2 9.3000000000240476e+01
q_21_3 -2.4049029434536351e-10
q_21_4 6.2000000001051518e+01
q_21_5 -3.3463914534438978e-10
q_22_0 5.7767778672496034e-10
q_22_1 1.5399999999935730e+02
q_22_2 -1.8026379054643989e-10
q_22_3 1.5400000000023985e+02
q_22_4 -2.0810137806746769e-10
q_22_5 0
q_23_0 3.9964902758984616e-10
q_23_1 -2.4956960942290607e-09
q_23_2 2.2500000000462430e+02
q_23_3 -3.8424717104408143e-10
q_23_4 1.4999999999746555e+02
q_23_5 0
q_24_0 0
q_24_1 -1.2363194912268227e-09
q_24_2 1.4400000000150612e+02
q_24_3 4.7999999998917318e+01
q_24_4 2.2708516208949675e-11
q_24_5 0
q_25_0 -1.8583967931553853e-11
q_25_1 148
q_25_2 7.3999999999176751e+01
q_25_3 7.4000000000518142e+01
q_25_4 74.0000000003237
q_25_5 -2.9306832217848574e-11
y_0_0 0
y_0_1 1
y_0_2 1
y_0_3 1
y_0_4 1
y_0_5 -3.96038273214171e-13
y_1_0 4.8005488473279456e-12
y_1_1 9.9999999999519928e-01
y_1_2 4.7819526116654743e-12
y_1_3 1
y_1_4 9.9999999999999378e-01
y_1_5 1.2811338737184707e-14
y_2_0 4.8108739214569596e-12
y_2_1 9.9999999999518874e-01
y_2_2 4.8765436133635376e-12
y_2_3 1
y_2_4 9.9999999999999378e-01
y_2_5 1.2811338737184707e-14
y_3_0 0
y_3_1 9.9999999999965949e-01
y_3_2 -1.1456779969165609e-11
y_3_3 1
y_3_4 9.9999999999999378e-01
y_3_5 1.2811338737184656e-14
y_4_0 0
y_4_1 1
y_4_2 0
y_4_3 1
y_4_4 1
y_4_5 0
y_5_0 -1.6200461233087257e-13
y_5_1 1.0000000000001616e+00
y_5_2 1.0727291187128299e-14
y_5_3 1.0000000000031981e+00
y_5_4 1
y_5_5 0
y_6_0 0
y_6_1 0.999999999995694
y_6_2 -3.1547402747302177e-12
y_6_3 2.3129923087070178e-12
y_6_4 9.9999999999768707e-01
y_6_5 0
y_7_0 0
y_7_1 0
y_7_2 1.0000000000000666e+00
y_7_3 0
y_7_4 1.0000000000008105e+00
y_7_5 -8.1118571134433220e-13
y_8_0 0
y_8_1 1.4434009543151660e-12
y_8_2 1
y_8_3 0
y_8_4 1
y_8_5 0
y_9_0 0
y_9_1 1
y_9_2 1
y_9_3 7.5473891686872210e-12
y_9_4 1.0000000000008105e+00
y_9_5 -8.1118571134433220e-13
y_10_0 0
y_10_1 9.9999999999999989e-01
y_10_2 0
y_10_3 0
y_10_4 1.0000000000039968e+00
y_10_5 -8.1118571134433220e-13
y_11_0 2.3604093926707748e-12
y_11_1 1
y_11_2 -2.7997689441331134e-12
y_11_3 1.0000000000028
y_11_4 1
y_11_5 0
y_12_0 -1.0914463777211836e-11
y_12_1 1.0000000000109142e+00
y_12_2 9.9999999998232636e-01
y_12_3 1.7673695840159098e-11
y_12_4 1
y_12_5 0
y_13_0 -3.11860770849144e-12
y_13_1 1.0000000000031291e+00
y_13_2 -4.9991197142308569e-12
y_13_3 1.0000000000050098e+00
y_13_4 1
y_13_5 0
y_14_0 -1.0882864877325154e-11
y_14_1 1.0000000000108822e+00
y_14_2 -5.0097778552672584e-12
y_14_3 1.0000000000050098e+00
y_14_4 1
y_14_5 0
y_15_0 -3.0056414199698211e-12
y_15_1 1.0000000000030165e+00
y_15_2 1
y_15_3 0
y_15_4 1
y_15_5 0
y_16_0 0
y_16_1 1
y_16_2 0
y_16_3 1
y_16_4 1.0000000000000062e+00
y_16_5 -1.2811338737184656e-14
y_17_0 0
y_17_1 1
y_17_2 0
y_17_3 -1.3571560447833966e-12
y_17_4 1.0000000000029783e+00
y_17_5 -1.6223714226886644e-12
y_18_0 0
y_18_1 1.0000000000031117e+00
y_18_2 0
y_18_3 1
y_18_4 8.0168584102656274e-12
y_18_5 0
y_19_0 -2.4944213361521861e-12
y_19_1 4.0010217361441391e-12
y_19_2 1
y_19_3 0
y_19_4 1
y_19_5 0
y_20_0 0
y_20_1 1.5837497979731552e-11
y_20_2 9.9999999998947220e-01
y_20_3 1
y_20_4 2.6090241078691179e-15
y_20_5 0
y_21_0 -7.7577111401438970e-12
y_21_1 0
y_21_2 1
y_21_3 0
y_21_4 1.0000000000169593e+00
y_21_5 -8.1118571134433220e-13
y_22_0 7.5023089185059786e-12
y_22_1 9.9999999999476874e-01
y_22_2 -4.3866691123830378e-12
y_22_3 1
y_22_4 -2.7024884169461160e-12
y_22_5 0
y_23_0 5.3286537011979490e-12
y_23_1 -9.5486119011667370e-12
y_23_2 1.0000000000187561e+00
y_23_3 5.0122867322131644e-12
y_23_4 9.9999999999498768e-01
y_23_5 0
y_24_0 0
y_24_1 -1.0459660915174140e-11
y_24_2 1.0000000000104592e+00
y_24_3 9.9999999998696021e-01
y_24_4 1.3037199553469142e-11
y_24_5 0
y_25_0 -2.5113470177775477e-13
y_25_1 1
y_25_2 9.9999999998862377e-01
y_25_3 9.9999999999562550e-01
y_25_4 1
y_25_5 1.9298586384623772e-15
x_0_1_0 0
x_0_1_1 0
x_0_1_2 0
x_0_1_3 0
x_0_1_4 0
x_0_1_5 0
x_0_2_0 0
x_0_2_1 0
x_0_2_2 0
x_0_2_3 0
x_0_2_4 0
x_0_2_5 0
x_0_3_0 0
x_0_3_1 0
x_0_3_2 0
x_0_3_3 0
x_0_3_4 0
x_0_3_5 0
x_0_4_0 0
x_0_4_1 0
x_0_4_2 0
x_0_4_3 0
x_0_4_4 0
x_0_4_5 0
x_0_5_0 0
x_0_5_1 0
x_0_5_2 0
x_0_5_3 0
x_0_5_4 0
x_0_5_5 0
x_0_6_0 0
x_0_6_1 0
x_0_6_2 0
x_0_6_3 0
x_0_6_4 0
x_0_6_5 0
x_0_7_0 0
x_0_7_1 0
x_0_7_2 0
x_0_7_3 0
x_0_7_4 0
x_0_7_5 0
x_0_8_0 0
x_0_8_1 0
x_0_8_2 0
x_0_8_3 0
x_0_8_4 0
x_0_8_5 0
x_0_9_0 0
x_0_9_1 0
x_0_9_2 0
x_0_9_3 0
x_0_9_4 0
x_0_9_5 0
x_0_10_0 0
x_0_10_1 0
x_0_10_2 0
x_0_10_3 0
x_0_10_4 0
x_0_10_5 0
x_0_11_0 0
x_0_11_1 0
x_0_11_2 0
x_0_11_3 0
x_0_11_4 0
x_0_11_5 0
x_0_12_0 0
x_0_12_1 0
x_0_12_2 0
x_0_12_3 0
x_0_12_4 0
x_0_12_5 0
x_0_13_0 0
x_0_13_1 0
x_0_13_2 0
x_0_13_3 0
x_0_13_4 0
x_0_13_5 0
x_0_14_0 0
x_0_14_1 0
x_0_14_2 0
x_0_14_3 0
x_0_14_4 0
x_0_14_5 0
x_0_15_0 0
x_0_15_1 0
x_0_15_2 0
x_0_15_3 0
x_0_15_4 0
x_0_15_5 0
x_0_16_0 0
x_0_16_1 0
x_0_16_2 0
x_0_16_3 0
x_0_16_4 0
x_0_16_5 0
x_0_17_0 0
x_0_17_1 0
x_0_17_2 0
x_0_17_3 0
x_0_17_4 0
x_0_17_5 0
x_0_18_0 0
x_0_18_1 0
x_0_18_2 0
x_0_18_3 0
x_0_18_4 0
x_0_18_5 0
x_0_19_0 0
x_0_19_1 0
x_0_19_2 0
x_0_19_3 0
x_0_19_4 0
x_0_19_5 0
x_0_20_0 0
x_0_20_1 0
x_0_20_2 0
x_0_20_3 0
x_0_20_4 0
x_0_20_5 0
x_0_21_0 0
x_0_21_1 0
x_0_21_2 0
x_0_21_3 0
x_0_21_4 0
x_0_21_5 0
x_0_22_0 0
x_0_22_1 9.9999999998926359e-01
x_0_22_2 0
x_0_22_3 1.0000000000022495e+00
x_0_22_4 0
x_0_22_5 0
x_0_23_0 0
x_0_23_1 0
x_0_23_2 1.0000000000169704e+00
x_0_23_3 -6.3510041264719136e-12
x_0_23_4 1.0000000000033653e+00
x_0_23_5 0
x_0_24_0 0
x_0_24_1 0
x_0_24_2 0
x_0_24_3 0
x_0_24_4 -1.4301642593835091e-12
x_0_24_5 0
x_0_25_0 -5.0226940355550954e-13
x_0_25_1 9.9999999999876543e-01
x_0_25_2 0.99999999998303
x_0_25_3 1.0000000000041098e+00
x_0_25_4 9.9999999999806477e-01
x_0_25_5 3.8597172769247544e-15
x_1_2_0 4.7819526116654743e-12
x_1_2_1 9.9999999999521783e-01
x_1_2_2 4.7819526116654743e-12
x_1_2_3 1
x_1_2_4 9.9999999999998734e-01
x_1_2_5 2.5622677474369414e-14
x_1_3_0 0
x_1_3_1 0
x_1_3_2 0
x_1_3_3 0
x_1_3_4 0
x_1_3_5 0
x_1_4_0 0
x_1_4_1 1
x_1_4_2 0
x_1_4_3 9.9999999999921008e-01
x_1_4_4 1
x_1_4_5 0
x_1_5_0 0
x_1_5_1 0
x_1_5_2 0
x_1_5_3 0
x_1_5_4 0
x_1_5_5 0
x_1_6_0 0
x_1_6_1 0
x_1_6_2 0
x_1_6_3 0
x_1_6_4 0
x_1_6_5 0
x_1_7_0 0
x_1_7_1 0
x_1_7_2 0
x_1_7_3 0
x_1_7_4 0
x_1_7_5 0
x_1_8_0 0
x_1_8_1 -6.3267724392801483e-12
x_1_8_2 4.7819526116654743e-12
x_1_8_3 0
x_1_8_4 0
x_1_8_5 0
x_1_9_0 0
x_1_9_1 0
x_1_9_2 0
x_1_9_3 0
x_1_9_4 0
x_1_9_5 0
x_1_10_0 0
x_1_10_1 1.4014345239843351e-12
x_1_10_2 0
x_1_10_3 -1.4047596419430874e-11
x_1_10_4 0
x_1_10_5 0
x_1_11_0 0
x_1_11_1 0
x_1_11_2 0
x_1_11_3 0
x_1_11_4 0
x_1_11_5 0
x_1_12_0 4.7819526116654743e-12
x_1_12_1 0
x_1_12_2 0
x_1_12_3 1.4959367078404284e-11
x_1_12_4 0
x_1_12_5 0
x_1_13_0 0
x_1_13_1 0
x_1_13_2 0
x_1_13_3 0
x_1_13_4 0
x_1_13_5 0
x_1_14_0 0
x_1_14_1 0
x_1_14_2 0
x_1_14_3 0
x_1_14_4 0
x_1_14_5 0
x_1_15_0 0
x_1_15_1 0
x_1_15_2 0
x_1_15_3 0
x_1_15_4 0
x_1_15_5 0
x_1_16_0 0
x_1_16_1 0
x_1_16_2 0
x_1_16_3 0
x_1_16_4 0
x_1_16_5 0
x_1_17_0 0
x_1_17_1 0
x_1_17_2 0
x_1_17_3 0
x_1_17_4 0
x_1_17_5 0
x_1_18_0 0
x_1_18_1 0
x_1_18_2 0
x_1_18_3 0
x_1_18_4 0
x_1_18_5 0
x_1_19_0 0
x_1_19_1 0
x_1_19_2 0
x_1_19_3 0
x_1_19_4 0
x_1_19_5 0
x_1_20_0 0
x_1_20_1 0
x_1_20_2 0
x_1_20_3 0
x_1_20_4 0
x_1_20_5 0
x_1_21_0 0
x_1_21_1 0
x_1_21_2 0
x_1_21_3 0
x_1_21_4 0
x_1_21_5 0
x_1_22_0 0
x_1_22_1 0
x_1_22_2 0
x_1_22_3 0
x_1_22_4 0
x_1_22_5 0
x_1_23_0 0
x_1_23_1 0
x_1_23_2 0
x_1_23_3 0
x_1_23_4 0
x_1_23_5 0
x_1_24_0 0
x_1_24_1 0
x_1_24_2 0
x_1_24_3 0
x_1_24_4 0
x_1_24_5 0
x_1_25_0 0
x_1_25_1 0
x_1_25_2 0
x_1_25_3 0
x_1_25_4 0
x_1_25_5 0
x_2_3_0 0
x_2_3_1 9.9999999999971279e-01
x_2_3_2 0
x_2_3_3 1
x_2_3_4 1
x_2_3_5 0
x_2_4_0 0
x_2_4_1 -4.5975445672752357e-12
x_2_4_2 0
x_2_4_3 7.8981876752664012e-13
x_2_4_4 0
x_2_4_5 0
x_2_5_0 0
x_2_5_1 0
x_2_5_2 0
x_2_5_3 0
x_2_5_4 0
x_2_5_5 0
x_2_6_0 0
x_2_6_1 0
x_2_6_2 0
x_2_6_3 0
x_2_6_4 0
x_2_6_5 0
x_2_7_0 0
x_2_7_1 0
x_2_7_2 0
x_2_7_3 0
x_2_7_4 0
x_2_7_5 0
x_2_8_0 0
x_2_8_1 0
x_2_8_2 5.0765502912497595e-12
x_2_8_3 0
x_2_8_4 0
x_2_8_5 0
x_2_9_0 0
x_2_9_1 0
x_2_9_2 0
x_2_9_3 0
x_2_9_4 0
x_2_9_5 0
x_2_10_0 0
x_2_10_1 0
x_2_10_2 0
x_2_10_3 0
x_2_10_4 0
x_2_10_5 0
x_2_11_0 4.8108739214569596e-12
x_2_11_1 0
x_2_11_2 0
x_2_11_3 0
x_2_11_4 0
x_2_11_5 0
x_2_12_0 0
x_2_12_1 0
x_2_12_2 0
x_2_12_3 0
x_2_12_4 0
x_2_12_5 0
x_2_13_0 0
x_2_13_1 0
x_2_13_2 0
x_2_13_3 0
x_2_13_4 0
x_2_13_5 0
x_2_14_0 0
x_2_14_1 0
x_2_14_2 0
x_2_14_3 0
x_2_14_4 0
x_2_14_5 0
x_2_15_0 0
x_2_15_1 0
x_2_15_2 0
x_2_15_3 0
x_2_15_4 0
x_2_15_5 0
x_2_16_0 0
x_2_16_1 0
x_2_16_2 0
x_2_16_3 0
x_2_16_4 0
x_2_16_5 0
x_2_17_0 0
x_2_17_1 0
x_2_17_2 0
x_2_17_3 0
x_2_17_4 0
x_2_17_5 0
x_2_18_0 0
x_2_18_1 0
x_2_18_2 0
x_2_18_3 0
x_2_18_4 0
x_2_18_5 0
x_2_19_0 0
x_2_19_1 0
x_2_19_2 0
x_2_19_3 0
x_2_19_4 0
x_2_19_5 0
x_2_20_0 0
x_2_20_1 0
x_2_20_2 0
x_2_20_3 0
x_2_20_4 0
x_2_20_5 0
x_2_21_0 0
x_2_21_1 0
x_2_21_2 0
x_2_21_3 0
x_2_21_4 0
x_2_21_5 0
x_2_22_0 0
x_2_22_1 0
x_2_22_2 0
x_2_22_3 0
x_2_22_4 0
x_2_22_5 0
x_2_23_0 0
x_2_23_1 0
x_2_23_2 0
x_2_23_3 0
x_2_23_4 0
x_2_23_5 0
x_2_24_0 0
x_2_24_1 0
x_2_24_2 0
x_2_24_3 0
x_2_24_4 0
x_2_24_5 0
x_2_25_0 0
x_2_25_1 0
x_2_25_2 0
x_2_25_3 0
x_2_25_4 0
x_2_25_5 0
x_3_4_0 0
x_3_4_1 0
x_3_4_2 0
x_3_4_3 0
x_3_4_4 0
x_3_4_5 0
x_3_5_0 0
x_3_5_1 0
x_3_5_2 0
x_3_5_3 0
x_3_5_4 0
x_3_5_5 0
x_3_6_0 0
x_3_6_1 0
x_3_6_2 0
x_3_6_3 0
x_3_6_4 0
x_3_6_5 0
x_3_7_0 0
x_3_7_1 0
x_3_7_2 0
x_3_7_3 0
x_3_7_4 0
x_3_7_5 0
x_3_8_0 0
x_3_8_1 0
x_3_8_2 -9.5058405591430528e-12
x_3_8_3 0
x_3_8_4 0
x_3_8_5 0
x_3_9_0 0
x_3_9_1 0
x_3_9_2 0
x_3_9_3 0
x_3_9_4 0
x_3_9_5 0
x_3_10_0 0
x_3_10_1 0
x_3_10_2 0
x_3_10_3 0
x_3_10_4 0
x_3_10_5 0
x_3_11_0 0
x_3_11_1 9.9999999999082079e-01
x_3_11_2 -7.53144768772529e-12
x_3_11_3 1.0000000000028
x_3_11_4 1.0000000000022933e+00
x_3_11_5 2.5622677474369313e-14
x_3_12_0 0
x_3_12_1 8.9027119010154365e-12
x_3_12_2 -6.0357829845258948e-12
x_3_12_3 1.2427836537654002e-12
x_3_12_4 -2.3188335754788537e-12
x_3_12_5 0
x_3_13_0 0
x_3_13_1 0
x_3_13_2 0
x_3_13_3 0
x_3_13_4 0
x_3_13_5 0
x_3_14_0 0
x_3_14_1 0
x_3_14_2 0
x_3_14_3 0
x_3_14_4 0
x_3_14_5 0
x_3_15_0 0
x_3_15_1 0
x_3_15_2 0
x_3_15_3 0
x_3_15_4 0
x_3_15_5 0
x_3_16_0 0
x_3_16_1 0
x_3_16_2 0
x_3_16_3 -1.6509016376176078e-12
x_3_16_4 0
x_3_16_5 0
x_3_17_0 0
x_3_17_1 0
x_3_17_2 0
x_3_17_3 0
x_3_17_4 0
x_3_17_5 0
x_3_18_0 0
x_3_18_1 0
x_3_18_2 0
x_3_18_3 0
x_3_18_4 0
x_3_18_5 0
x_3_19_0 0
x_3_19_1 0
x_3_19_2 0
x_3_19_3 0
x_3_19_4 0
x_3_19_5 0
x_3_20_0 0
x_3_20_1 0
x_3_20_2 0
x_3_20_3 0
x_3_20_4 0
x_3_20_5 0
x_3_21_0 0
x_3_21_1 0
x_3_21_2 0
x_3_21_3 0
x_3_21_4 0
x_3_21_5 0
x_3_22_0 0
x_3_22_1 0
x_3_22_2 0
x_3_22_3 0
x_3_22_4 0
x_3_22_5 0
x_3_23_0 0
x_3_23_1 0
x_3_23_2 0
x_3_23_3 0
x_3_23_4 0
x_3_23_5 0
x_3_24_0 0
x_3_24_1 0
x_3_24_2 0
x_3_24_3 0
x_3_24_4 0
x_3_24_5 0
x_3_25_0 0
x_3_25_1 0
x_3_25_2 0
x_3_25_3 0
x_3_25_4 0
x_3_25_5 0
x_4_5_0 0
x_4_5_1 1.0307088516015028e-11
x_4_5_2 0
x_4_5_3 1.0000000000010880e+00
x_4_5_4 1.6995849172474209e-12
x_4_5_5 0
x_4_6_0 0
x_4_6_1 9.9999999999911016e-01
x_4_6_2 0
x_4_6_3 1.6995849172474209e-12
x_4_6_4 9.9999999999830047e-01
x_4_6_5 0
x_4_7_0 0
x_4_7_1 0
x_4_7_2 0
x_4_7_3 0
x_4_7_4 0
x_4_7_5 0
x_4_8_0 0
x_4_8_1 0
x_4_8_2 0
x_4_8_3 0
x_4_8_4 0
x_4_8_5 0
x_4_9_0 0
x_4_9_1 0
x_4_9_2 0
x_4_9_3 0
x_4_9_4 0
x_4_9_5 0
x_4_10_0 0
x_4_10_1 0
x_4_10_2 0
x_4_10_3 0
x_4_10_4 0
x_4_10_5 0
x_4_11_0 0
x_4_11_1 0
x_4_11_2 0
x_4_11_3 0
x_4_11_4 0
x_4_11_5 0
x_4_12_0 0
x_4_12_1 0
x_4_12_2 0
x_4_12_3 0
x_4_12_4 0
x_4_12_5 0
x_4_13_0 0
x_4_13_1 0
x_4_13_2 0
x_4_13_3 0
x_4_13_4 0
x_4_13_5 0
x_4_14_0 0
x_4_14_1 0
x_4_14_2 0
x_4_14_3 0
x_4_14_4 0
x_4_14_5 0
x_4_15_0 0
x_4_15_1 0
x_4_15_2 0
x_4_15_3 0
x_4_15_4 0
x_4_15_5 0
x_4_16_0 0
x_4_16_1 0
x_4_16_2 0
x_4_16_3 0
x_4_16_4 0
x_4_16_5 0
x_4_17_0 0
x_4_17_1 0
x_4_17_2 0
x_4_17_3 0
x_4_17_4 0
x_4_17_5 0
x_4_18_0 0
x_4_18_1 0
x_4_18_2 0
x_4_18_3 0
x_4_18_4 0
x_4_18_5 0
x_4_19_0 0
x_4_19_1 0
x_4_19_2 0
x_4_19_3 0
x_4_19_4 0
x_4_19_5 0
x_4_20_0 0
x_4_20_1 0
x_4_20_2 0
x_4_20_3 0
x_4_20_4 0
x_4_20_5 0
x_4_21_0 0
x_4_21_1 0
x_4_21_2 0
x_4_21_3 0
x_4_21_4 0
x_4_21_5 0
x_4_22_0 0
x_4_22_1 0
x_4_22_2 0
x_4_22_3 0
x_4_22_4 0
x_4_22_5 0
x_4_23_0 0
x_4_23_1 0
x_4_23_2 0
x_4_23_3 0
x_4_23_4 0
x_4_23_5 0
x_4_24_0 0
x_4_24_1 0
x_4_24_2 0
x_4_24_3 0
x_4_24_4 0
x_4_24_5 0
x_4_25_0 0
x_4_25_1 0
x_4_25_2 0
x_4_25_3 0
x_4_25_4 0
x_4_25_5 0
x_5_6_0 9.7395446609098650e-12
x_5_6_1 9.9999999998714939e-01
x_5_6_2 -3.1444846726458309e-12
x_5_6_3 1.6995849172474209e-12
x_5_6_4 9.9999999999830047e-01
x_5_6_5 0
x_5_7_0 0
x_5_7_1 0
x_5_7_2 0
x_5_7_3 0
x_5_7_4 0
x_5_7_5 0
x_5_8_0 0
x_5_8_1 0
x_5_8_2 0
x_5_8_3 0
x_5_8_4 0
x_5_8_5 0
x_5_9_0 0
x_5_9_1 0
x_5_9_2 0
x_5_9_3 0
x_5_9_4 0
x_5_9_5 0
x_5_10_0 0
x_5_10_1 0
x_5_10_2 0
x_5_10_3 0
x_5_10_4 0
x_5_10_5 0
x_5_11_0 0
x_5_11_1 0
x_5_11_2 0
x_5_11_3 0
x_5_11_4 0
x_5_11_5 0
x_5_12_0 0
x_5_12_1 0
x_5_12_2 0
x_5_12_3 0
x_5_12_4 0
x_5_12_5 0
x_5_13_0 7.7167088522518525e-12
x_5_13_1 1.0000000000028844e+00
x_5_13_2 0
x_5_13_3 1.0000000000027973e+00
x_5_13_4 1
x_5_13_5 0
x_5_14_0 -1.85531590045349e-11
x_5_14_1 0
x_5_14_2 0
x_5_14_3 -3.3306690738754696e-16
x_5_14_4 0
x_5_14_5 0
x_5_15_0 0
x_5_15_1 0
x_5_15_2 0
x_5_15_3 0
x_5_15_4 0
x_5_15_5 0
x_5_16_0 0
x_5_16_1 0
x_5_16_2 0
x_5_16_3 0
x_5_16_4 0
x_5_16_5 0
x_5_17_0 0
x_5_17_1 0
x_5_17_2 0
x_5_17_3 0
x_5_17_4 0
x_5_17_5 0
x_5_18_0 0
x_5_18_1 0
x_5_18_2 0
x_5_18_3 0
x_5_18_4 0
x_5_18_5 0
x_5_19_0 0
x_5_19_1 0
x_5_19_2 0
x_5_19_3 0
x_5_19_4 0
x_5_19_5 0
x_5_20_0 0
x_5_20_1 0
x_5_20_2 0
x_5_20_3 0
x_5_20_4 0
x_5_20_5 0
x_5_21_0 0
x_5_21_1 0
x_5_21_2 0
x_5_21_3 0
x_5_21_4 0
x_5_21_5 0
x_5_22_0 0
x_5_22_1 0
x_5_22_2 0
x_5_22_3 0
x_5_22_4 0
x_5_22_5 0
x_5_23_0 0
x_5_23_1 0
x_5_23_2 0
x_5_23_3 0
x_5_23_4 0
x_5_23_5 0
x_5_24_0 0
x_5_24_1 0
x_5_24_2 0
x_5_24_3 0
x_5_24_4 0
x_5_24_5 0
x_5_25_0 0
x_5_25_1 0
x_5_25_2 0
x_5_25_3 0
x_5_25_4 0
x_5_25_5 0
x_6_7_0 0
x_6_7_1 0
x_6_7_2 0
x_6_7_3 0
x_6_7_4 0
x_6_7_5 0
x_6_8_0 0
x_6_8_1 0
x_6_8_2 0
x_6_8_3 0
x_6_8_4 0
x_6_8_5 0
x_6_9_0 0
x_6_9_1 0
x_6_9_2 0
x_6_9_3 0
x_6_9_4 0
x_6_9_5 0
x_6_10_0 0
x_6_10_1 0
x_6_10_2 0
x_6_10_3 0
x_6_10_4 0
x_6_10_5 0
x_6_11_0 9.7395446609098650e-12
x_6_11_1 0
x_6_11_2 0
x_6_11_3 0
x_6_11_4 0
x_6_11_5 0
x_6_12_0 0
x_6_12_1 0
x_6_12_2 0
x_6_12_3 0
x_6_12_4 0
x_6_12_5 0
x_6_13_0 0
x_6_13_1 0
x_6_13_2 0
x_6_13_3 0
x_6_13_4 0
x_6_13_5 0
x_6_14_0 0
x_6_14_1 5.5865312376113252e-12
x_6_14_2 0
x_6_14_3 0
x_6_14_4 0
x_6_14_5 0
x_6_15_0 0
x_6_15_1 0
x_6_15_2 0
x_6_15_3 0
x_6_15_4 0
x_6_15_5 0
x_6_16_0 0
x_6_16_1 0
x_6_16_2 0
x_6_16_3 0
x_6_16_4 0
x_6_16_5 0
x_6_17_0 0
x_6_17_1 0
x_6_17_2 0
x_6_17_3 0
x_6_17_4 0
x_6_17_5 0
x_6_18_0 0
x_6_18_1 0
x_6_18_2 0
x_6_18_3 0
x_6_18_4 0
x_6_18_5 0
x_6_19_0 0
x_6_19_1 0
x_6_19_2 -6.2359896925730904e-12
x_6_19_3 0
x_6_19_4 0
x_6_19_5 0
x_6_20_0 0
x_6_20_1 0
x_6_20_2 0
x_6_20_3 0
x_6_20_4 0
x_6_20_5 0
x_6_21_0 0
x_6_21_1 0
x_6_21_2 0
x_6_21_3 0
x_6_21_4 0
x_6_21_5 0
x_6_22_0 0
x_6_22_1 0
x_6_22_2 0
x_6_22_3 0
x_6_22_4 0
x_6_22_5 0
x_6_23_0 0
x_6_23_1 0
x_6_23_2 0
x_6_23_3 0
x_6_23_4 0
x_6_23_5 0
x_6_24_0 0
x_6_24_1 0
x_6_24_2 0
x_6_24_3 0
x_6_24_4 0
x_6_24_5 0
x_6_25_0 0
x_6_25_1 0
x_6_25_2 0
x_6_25_3 0
x_6_25_4 0
x_6_25_5 0
x_7_8_0 0
x_7_8_1 0
x_7_8_2 9.9999999999998879e-01
x_7_8_3 0
x_7_8_4 1
x_7_8_5 0
x_7_9_0 0
x_7_9_1 7.1207896226794278e-12
x_7_9_2 1.0000000000000815e+00
x_7_9_3 0
x_7_9_4 -2.9365864951188332e-12
x_7_9_5 0
x_7_10_0 0
x_7_10_1 -7.1206786003769653e-12
x_7_10_2 0
x_7_10_3 0
x_7_10_4 1.0000000000047911e+00
x_7_10_5 -1.6223714226886644e-12
x_7_11_0 0
x_7_11_1 0
x_7_11_2 0
x_7_11_3 0
x_7_11_4 0
x_7_11_5 0
x_7_12_0 0
x_7_12_1 0
x_7_12_2 0
x_7_12_3 0
x_7_12_4 0
x_7_12_5 0
x_7_13_0 0
x_7_13_1 0
x_7_13_2 0
x_7_13_3 0
x_7_13_4 0
x_7_13_5 0
x_7_14_0 0
x_7_14_1 0
x_7_14_2 0
x_7_14_3 0
x_7_14_4 0
x_7_14_5 0
x_7_15_0 0
x_7_15_1 0
x_7_15_2 0
x_7_15_3 0
x_7_15_4 0
x_7_15_5 0
x_7_16_0 0
x_7_16_1 0
x_7_16_2 0
x_7_16_3 0
x_7_16_4 0
x_7_16_5 0
x_7_17_0 0
x_7_17_1 0
x_7_17_2 0
x_7_17_3 0
x_7_17_4 0
x_7_17_5 0
x_7_18_0 0
x_7_18_1 0
x_7_18_2 0
x_7_18_3 0
x_7_18_4 0
x_7_18_5 0
x_7_19_0 0
x_7_19_1 0
x_7_19_2 0
x_7_19_3 0
x_7_19_4 0
x_7_19_5 0
x_7_20_0 0
x_7_20_1 0
x_7_20_2 0
x_7_20_3 0
x_7_20_4 0
x_7_20_5 0
x_7_21_0 0
x_7_21_1 0
x_7_21_2 0
x_7_21_3 0
x_7_21_4 0
x_7_21_5 0
x_7_22_0 0
x_7_22_1 0
x_7_22_2 0
x_7_22_3 0
x_7_22_4 0
x_7_22_5 0
x_7_23_0 0
x_7_23_1 0
x_7_23_2 0
x_7_23_3 0
x_7_23_4 0
x_7_23_5 0
x_7_24_0 0
x_7_24_1 0
x_7_24_2 0
x_7_24_3 0
x_7_24_4 0
x_7_24_5 0
x_7_25_0 0
x_7_25_1 0
x_7_25_2 0
x_7_25_3 0
x_7_25_4 0
x_7_25_5 0
x_8_9_0 0
x_8_9_1 0
x_8_9_2 -8.1205254471785280e-14
x_8_9_3 0
x_8_9_4 0
x_8_9_5 0
x_8_10_0 0
x_8_10_1 1.3902212714356210e-12
x_8_10_2 0
x_8_10_3 0
x_8_10_4 -2.3188335754788537e-12
x_8_10_5 0
x_8_11_0 0
x_8_11_1 0
x_8_11_2 0
x_8_11_3 0
x_8_11_4 0
x_8_11_5 0
x_8_12_0 0
x_8_12_1 7.7849393598228289e-12
x_8_12_2 1
x_8_12_3 0
x_8_12_4 1.0000000000023190e+00
x_8_12_5 0
x_8_13_0 0
x_8_13_1 0
x_8_13_2 0
x_8_13_3 0
x_8_13_4 0
x_8_13_5 0
x_8_14_0 0
x_8_14_1 0
x_8_14_2 0
x_8_14_3 0
x_8_14_4 0
x_8_14_5 0
x_8_15_0 0
x_8_15_1 0
x_8_15_2 0
x_8_15_3 0
x_8_15_4 0
x_8_15_5 0
x_8_16_0 0
x_8_16_1 0
x_8_16_2 0
x_8_16_3 0
x_8_16_4 0
x_8_16_5 0
x_8_17_0 0
x_8_17_1 0
x_8_17_2 0
x_8_17_3 0
x_8_17_4 0
x_8_17_5 0
x_8_18_0 0
x_8_18_1 0
x_8_18_2 0
x_8_18_3 0
x_8_18_4 0
x_8_18_5 0
x_8_19_0 0
x_8_19_1 0
x_8_19_2 0
x_8_19_3 0
x_8_19_4 0
x_8_19_5 0
x_8_20_0 0
x_8_20_1 0
x_8_20_2 0
x_8_20_3 0
x_8_20_4 0
x_8_20_5 0
x_8_21_0 0
x_8_21_1 0
x_8_21_2 0
x_8_21_3 0
x_8_21_4 0
x_8_21_5 0
x_8_22_0 0
x_8_22_1 0
x_8_22_2 0
x_8_22_3 0
x_8_22_4 0
x_8_22_5 0
x_8_23_0 0
x_8_23_1 0
x_8_23_2 0
x_8_23_3 0
x_8_23_4 0
x_8_23_5 0
x_8_24_0 0
x_8_24_1 0
x_8_24_2 0
x_8_24_3 0
x_8_24_4 0
x_8_24_5 0
x_8_25_0 0
x_8_25_1 0
x_8_25_2 0
x_8_25_3 0
x_8_25_4 0
x_8_25_5 0
x_9_10_0 0
x_9_10_1 9.9999999999999978e-01
x_9_10_2 0
x_9_10_3 8.3034467252925988e-12
x_9_10_4 1.0000000000054516e+00
x_9_10_5 0
x_9_11_0 0
x_9_11_1 0
x_9_11_2 0
x_9_11_3 0
x_9_11_4 0
x_9_11_5 0
x_9_12_0 0
x_9_12_1 0
x_9_12_2 0
x_9_12_3 0
x_9_12_4 0
x_9_12_5 0
x_9_13_0 0
x_9_13_1 0
x_9_13_2 0
x_9_13_3 0
x_9_13_4 0
x_9_13_5 0
x_9_14_0 0
x_9_14_1 0
x_9_14_2 0
x_9_14_3 0
x_9_14_4 0
x_9_14_5 0
x_9_15_0 0
x_9_15_1 0
x_9_15_2 0
x_9_15_3 0
x_9_15_4 0
x_9_15_5 0
x_9_16_0 0
x_9_16_1 0
x_9_16_2 0
x_9_16_3 0
x_9_16_4 0
x_9_16_5 0
x_9_17_0 0
x_9_17_1 1
x_9_17_2 0
x_9_17_3 8.3034467252925988e-12
x_9_17_4 1.0000000000029765e+00
x_9_17_5 -1.6223714226886644e-12
x_9_18_0 0
x_9_18_1 0
x_9_18_2 0
x_9_18_3 0
x_9_18_4 0
x_9_18_5 0
x_9_19_0 0
x_9_19_1 0
x_9_19_2 0
x_9_19_3 0
x_9_19_4 0
x_9_19_5 0
x_9_20_0 0
x_9_20_1 1.3063017182874565e-11
x_9_20_2 0
x_9_20_3 0
x_9_20_4 0
x_9_20_5 0
x_9_21_0 0
x_9_21_1 0
x_9_21_2 1
x_9_21_3 0
x_9_21_4 -3.6388821206742775e-12
x_9_21_5 0
x_9_22_0 0
x_9_22_1 0
x_9_22_2 0
x_9_22_3 0
x_9_22_4 0
x_9_22_5 0
x_9_23_0 0
x_9_23_1 0
x_9_23_2 0
x_9_23_3 0
x_9_23_4 0
x_9_23_5 0
x_9_24_0 0
x_9_24_1 0
x_9_24_2 0
x_9_24_3 0
x_9_24_4 0
x_9_24_5 0
x_9_25_0 0
x_9_25_1 0
x_9_25_2 0
x_9_25_3 0
x_9_25_4 0
x_9_25_5 0
x_10_11_0 0
x_10_11_1 0
x_10_11_2 0
x_10_11_3 0
x_10_11_4 0
x_10_11_5 0
x_10_12_0 0
x_10_12_1 1
x_10_12_2 0
x_10_12_3 1.1016798584506660e-11
x_10_12_4 0
x_10_12_5 0
x_10_13_0 0
x_10_13_1 0
x_10_13_2 0
x_10_13_3 0
x_10_13_4 0
x_10_13_5 0
x_10_14_0 0
x_10_14_1 0
x_10_14_2 0
x_10_14_3 0
x_10_14_4 0
x_10_14_5 0
x_10_15_0 0
x_10_15_1 4.2707781755524366e-12
x_10_15_2 0
x_10_15_3 0
x_10_15_4 0
x_10_15_5 0
x_10_16_0 0
x_10_16_1 0
x_10_16_2 0
x_10_16_3 0
x_10_16_4 0
x_10_16_5 0
x_10_17_0 0
x_10_17_1 0
x_10_17_2 0
x_10_17_3 0
x_10_17_4 0
x_10_17_5 0
x_10_18_0 0
x_10_18_1 0
x_10_18_2 0
x_10_18_3 0
x_10_18_4 0
x_10_18_5 0
x_10_19_0 0
x_10_19_1 0
x_10_19_2 0
x_10_19_3 0
x_10_19_4 0
x_10_19_5 0
x_10_20_0 0
x_10_20_1 0
x_10_20_2 0
x_10_20_3 0
x_10_20_4 0
x_10_20_5 0
x_10_21_0 0
x_10_21_1 0
x_10_21_2 0
x_10_21_3 -1.1071088490410830e-11
x_10_21_4 0
x_10_21_5 0
x_10_22_0 0
x_10_22_1 0
x_10_22_2 0
x_10_22_3 0
x_10_22_4 0
x_10_22_5 0
x_10_23_0 0
x_10_23_1 0
x_10_23_2 0
x_10_23_3 0
x_10_23_4 0
x_10_23_5 0
x_10_24_0 0
x_10_24_1 0
x_10_24_2 0
x_10_24_3 0
x_10_24_4 0
x_10_24_5 0
x_10_25_0 0
x_10_25_1 0
x_10_25_2 0
x_10_25_3 0
x_10_25_4 0
x_10_25_5 0
x_11_12_0 -1.5561107957751119e-11
x_11_12_1 0
x_11_12_2 0
x_11_12_3 0
x_11_12_4 0
x_11_12_5 0
x_11_13_0 0
x_11_13_1 0
x_11_13_2 0
x_11_13_3 0
x_11_13_4 0
x_11_13_5 0
x_11_14_0 0
x_11_14_1 0
x_11_14_2 0
x_11_14_3 0
x_11_14_4 0
x_11_14_5 0
x_11_15_0 4.7731818497709355e-12
x_11_15_1 0
x_11_15_2 2.1754820167529942e-12
x_11_15_3 0
x_11_15_4 -2.2932108980044843e-12
x_11_15_5 0
x_11_16_0 0
x_11_16_1 1.0000000000008680e+00
x_11_16_2 0
x_11_16_3 1.0000000000028
x_11_16_4 1
x_11_16_5 -2.5622677474369313e-14
x_11_17_0 0
x_11_17_1 0
x_11_17_2 0
x_11_17_3 0
x_11_17_4 0
x_11_17_5 0
x_11_18_0 0
x_11_18_1 0
x_11_18_2 0
x_11_18_3 0
x_11_18_4 0
x_11_18_5 0
x_11_19_0 0
x_11_19_1 0
x_11_19_2 0
x_11_19_3 0
x_11_19_4 0
x_11_19_5 0
x_11_20_0 0
x_11_20_1 0
x_11_20_2 0
x_11_20_3 0
x_11_20_4 0
x_11_20_5 0
x_11_21_0 0
x_11_21_1 0
x_11_21_2 0
x_11_21_3 0
x_11_21_4 0
x_11_21_5 0
x_11_22_0 0
x_11_22_1 0
x_11_22_2 0
x_11_22_3 0
x_11_22_4 0
x_11_22_5 0
x_11_23_0 0
x_11_23_1 0
x_11_23_2 0
x_11_23_3 0
x_11_23_4 0
x_11_23_5 0
x_11_24_0 0
x_11_24_1 0
x_11_24_2 0
x_11_24_3 0
x_11_24_4 0
x_11_24_5 0
x_11_25_0 0
x_11_25_1 0
x_11_25_2 0
x_11_25_3 0
x_11_25_4 0
x_11_25_5 0
x_12_13_0 0
x_12_13_1 0
x_12_13_2 0
x_12_13_3 0
x_12_13_4 0
x_12_13_5 0
x_12_14_0 0
x_12_14_1 0
x_12_14_2 0
x_12_14_3 0
x_12_14_4 0
x_12_14_5 0
x_12_15_0 -1.1091350060610239e-11
x_12_15_1 1.0000000000020379e+00
x_12_15_2 9.9999999997851818e-01
x_12_15_3 0
x_12_15_4 1
x_12_15_5 0
x_12_16_0 0
x_12_16_1 0
x_12_16_2 0
x_12_16_3 0
x_12_16_4 0
x_12_16_5 0
x_12_17_0 0
x_12_17_1 0
x_12_17_2 0
x_12_17_3 0
x_12_17_4 0
x_12_17_5 0
x_12_18_0 0
x_12_18_1 0
x_12_18_2 0
x_12_18_3 0
x_12_18_4 0
x_12_18_5 0
x_12_19_0 0
x_12_19_1 0
x_12_19_2 0
x_12_19_3 0
x_12_19_4 0
x_12_19_5 0
x_12_20_0 0
x_12_20_1 0
x_12_20_2 0
x_12_20_3 0
x_12_20_4 0
x_12_20_5 0
x_12_21_0 0
x_12_21_1 0
x_12_21_2 0
x_12_21_3 0
x_12_21_4 0
x_12_21_5 0
x_12_22_0 0
x_12_22_1 0
x_12_22_2 0
x_12_22_3 0
x_12_22_4 0
x_12_22_5 0
x_12_23_0 0
x_12_23_1 0
x_12_23_2 0
x_12_23_3 0
x_12_23_4 0
x_12_23_5 0
x_12_24_0 0
x_12_24_1 0
x_12_24_2 0
x_12_24_3 0
x_12_24_4 0
x_12_24_5 0
x_12_25_0 0
x_12_25_1 0
x_12_25_2 0
x_12_25_3 0
x_12_25_4 0
x_12_25_5 0
x_13_14_0 0
x_13_14_1 1.0000000000134910e+00
x_13_14_2 -4.8771678321605248e-12
x_13_14_3 1.0000000000097760e+00
x_13_14_4 1
x_13_14_5 0
x_13_15_0 0
x_13_15_1 0
x_13_15_2 0
x_13_15_3 0
x_13_15_4 0
x_13_15_5 0
x_13_16_0 0
x_13_16_1 0
x_13_16_2 0
x_13_16_3 0
x_13_16_4 0
x_13_16_5 0
x_13_17_0 0
x_13_17_1 0
x_13_17_2 0
x_13_17_3 0
x_13_17_4 0
x_13_17_5 0
x_13_18_0 -1.2781754892217290e-11
x_13_18_1 -1.0924557807043004e-11
x_13_18_2 0
x_13_18_3 -2.7869928587165305e-12
x_13_18_4 0
x_13_18_5 0
x_13_19_0 0
x_13_19_1 0
x_13_19_2 -4.9781091195429029e-12
x_13_19_3 0
x_13_19_4 0
x_13_19_5 0
x_13_20_0 0
x_13_20_1 0
x_13_20_2 0
x_13_20_3 0
x_13_20_4 0
x_13_20_5 0
x_13_21_0 0
x_13_21_1 0
x_13_21_2 0
x_13_21_3 0
x_13_21_4 0
x_13_21_5 0
x_13_22_0 0
x_13_22_1 0
x_13_22_2 0
x_13_22_3 0
x_13_22_4 0
x_13_22_5 0
x_13_23_0 0
x_13_23_1 0
x_13_23_2 0
x_13_23_3 0
x_13_23_4 0
x_13_23_5 0
x_13_24_0 0
x_13_24_1 0
x_13_24_2 0
x_13_24_3 0
x_13_24_4 0
x_13_24_5 0
x_13_25_0 0
x_13_25_1 0
x_13_25_2 0
x_13_25_3 0
x_13_25_4 0
x_13_25_5 0
x_14_15_0 0
x_14_15_1 0
x_14_15_2 0
x_14_15_3 0
x_14_15_4 0
x_14_15_5 0
x_14_16_0 0
x_14_16_1 0
x_14_16_2 0
x_14_16_3 0
x_14_16_4 0
x_14_16_5 0
x_14_17_0 0
x_14_17_1 0
x_14_17_2 0
x_14_17_3 0
x_14_17_4 0
x_14_17_5 0
x_14_18_0 -4.5387603747911891e-13
x_14_18_1 1.0000000000114031e+00
x_14_18_2 0
x_14_18_3 1.0000000000027980e+00
x_14_18_4 8.07091848112514e-12
x_14_18_5 0
x_14_19_0 0
x_14_19_1 0
x_14_19_2 -4.8771678321605248e-12
x_14_19_3 0
x_14_19_4 9.9999999999463163e-01
x_14_19_5 0
x_14_20_0 0
x_14_20_1 0
x_14_20_2 0
x_14_20_3 0
x_14_20_4 0
x_14_20_5 0
x_14_21_0 0
x_14_21_1 0
x_14_21_2 0
x_14_21_3 0
x_14_21_4 0
x_14_21_5 0
x_14_22_0 7.3418215951193133e-12
x_14_22_1 0
x_14_22_2 0
x_14_22_3 -2.7866620141430793e-12
x_14_22_4 -2.7024884169461160e-12
x_14_22_5 0
x_14_23_0 0
x_14_23_1 0
x_14_23_2 0
x_14_23_3 0
x_14_23_4 0
x_14_23_5 0
x_14_24_0 0
x_14_24_1 0
x_14_24_2 0
x_14_24_3 0
x_14_24_4 0
x_14_24_5 0
x_14_25_0 0
x_14_25_1 0
x_14_25_2 0
x_14_25_3 0
x_14_25_4 0
x_14_25_5 0
x_15_16_0 0
x_15_16_1 1
x_15_16_2 0
x_15_16_3 0
x_15_16_4 1.0000000000046250e+00
x_15_16_5 0
x_15_17_0 0
x_15_17_1 0
x_15_17_2 0
x_15_17_3 0
x_15_17_4 0
x_15_17_5 0
x_15_18_0 0
x_15_18_1 0
x_15_18_2 0
x_15_18_3 0
x_15_18_4 0
x_15_18_5 0
x_15_19_0 0
x_15_19_1 0
x_15_19_2 9.0375484873561618e-12
x_15_19_3 0
x_15_19_4 0
x_15_19_5 0
x_15_20_0 0
x_15_20_1 1.4458236123085114e-12
x_15_20_2 1.0000000000033014e+00
x_15_20_3 0
x_15_20_4 -2.3188335754788537e-12
x_15_20_5 0
x_15_21_0 0
x_15_21_1 0
x_15_21_2 0
x_15_21_3 0
x_15_21_4 0
x_15_21_5 0
x_15_22_0 0
x_15_22_1 0
x_15_22_2 0
x_15_22_3 0
x_15_22_4 0
x_15_22_5 0
x_15_23_0 0
x_15_23_1 0
x_15_23_2 0
x_15_23_3 0
x_15_23_4 0
x_15_23_5 0
x_15_24_0 0
x_15_24_1 0
x_15_24_2 0
x_15_24_3 0
x_15_24_4 0
x_15_24_5 0
x_15_25_0 0
x_15_25_1 0
x_15_25_2 0
x_15_25_3 0
x_15_25_4 0
x_15_25_5 0
x_16_17_0 0
x_16_17_1 0
x_16_17_2 0
x_16_17_3 0
x_16_17_4 0
x_16_17_5 0
x_16_18_0 0
x_16_18_1 -3.7623237858497305e-12
x_16_18_2 0
x_16_18_3 0
x_16_18_4 0
x_16_18_5 0
x_16_19_0 -4.9684700798025005e-12
x_16_19_1 -7.0130568019521888e-12
x_16_19_2 0
x_16_19_3 0
x_16_19_4 0
x_16_19_5 0
x_16_20_0 4.6084802640677935e-12
x_16_20_1 0
x_16_20_2 0
x_16_20_3 9.9999999999182010e-01
x_16_20_4 0
x_16_20_5 0
x_16_21_0 0
x_16_21_1 0
x_16_21_2 0
x_16_21_3 0
x_16_21_4 0
x_16_21_5 0
x_16_22_0 0
x_16_22_1 0
x_16_22_2 0
x_16_22_3 0
x_16_22_4 0
x_16_22_5 0
x_16_23_0 0
x_16_23_1 -3.6434006804331266e-12
x_16_23_2 0
x_16_23_3 7.3475361481494e-12
x_16_23_4 0
x_16_23_5 0
x_16_24_0 0
x_16_24_1 0
x_16_24_2 0
x_16_24_3 0
x_16_24_4 0
x_16_24_5 0
x_16_25_0 0
x_16_25_1 0
x_16_25_2 0
x_16_25_3 0
x_16_25_4 0
x_16_25_5 0
x_17_18_0 0
x_17_18_1 0
x_17_18_2 0
x_17_18_3 0
x_17_18_4 0
x_17_18_5 0
x_17_19_0 0
x_17_19_1 0
x_17_19_2 0
x_17_19_3 0
x_17_19_4 0
x_17_19_5 0
x_17_20_0 0
x_17_20_1 0
x_17_20_2 0
x_17_20_3 0
x_17_20_4 0
x_17_20_5 0
x_17_21_0 0
x_17_21_1 0
x_17_21_2 5.5511151231257827e-17
x_17_21_3 -6.6884675762695266e-13
x_17_21_4 1.0000000000182774e+00
x_17_21_5 -1.6223714226886644e-12
x_17_22_0 0
x_17_22_1 0
x_17_22_2 0
x_17_22_3 0
x_17_22_4 0
x_17_22_5 0
x_17_23_0 0
x_17_23_1 0
x_17_23_2 0
x_17_23_3 0
x_17_23_4 0
x_17_23_5 0
x_17_24_0 0
x_17_24_1 -1.3805651066789437e-11
x_17_24_2 0
x_17_24_3 -8.9740427859664447e-12
x_17_24_4 0
x_17_24_5 0
x_17_25_0 0
x_17_25_1 1.0000000000012339e+00
x_17_25_2 0
x_17_25_3 0
x_17_25_4 -1.5265538833020287e-11
x_17_25_5 0
x_18_19_0 0
x_18_19_1 1.4621637234313312e-11
x_18_19_2 0
x_18_19_3 0
x_18_19_4 8.07091848112514e-12
x_18_19_5 0
x_18_20_0 0
x_18_20_1 0
x_18_20_2 0
x_18_20_3 0
x_18_20_4 0
x_18_20_5 0
x_18_21_0 0
x_18_21_1 0
x_18_21_2 0
x_18_21_3 0
x_18_21_4 0
x_18_21_5 0
x_18_22_0 7.34171057281685e-12
x_18_22_1 9.9999999999487788e-01
x_18_22_2 0
x_18_22_3 1
x_18_22_4 0
x_18_22_5 0
x_18_23_0 0
x_18_23_1 0
x_18_23_2 0
x_18_23_3 0
x_18_23_4 0
x_18_23_5 0
x_18_24_0 0
x_18_24_1 0
x_18_24_2 0
x_18_24_3 0
x_18_24_4 0
x_18_24_5 0
x_18_25_0 0
x_18_25_1 0
x_18_25_2 0
x_18_25_3 0
x_18_25_4 0
x_18_25_5 0
x_19_20_0 0
x_19_20_1 0
x_19_20_2 9.9999999997929556e-01
x_19_20_3 0
x_19_20_4 3.8892859014323056e-12
x_19_20_5 0
x_19_21_0 0
x_19_21_1 0
x_19_21_2 0
x_19_21_3 0
x_19_21_4 0
x_19_21_5 0
x_19_22_0 0
x_19_22_1 0
x_19_22_2 1.9459557070625897e-13
x_19_22_3 0
x_19_22_4 0
x_19_22_5 0
x_19_23_0 0
x_19_23_1 0
x_19_23_2 1.0000000000246414e+00
x_19_23_3 0
x_19_23_4 9.9999999999324329e-01
x_19_23_5 0
x_19_24_0 0
x_19_24_1 0
x_19_24_2 0
x_19_24_3 0
x_19_24_4 0
x_19_24_5 0
x_19_25_0 0
x_19_25_1 0
x_19_25_2 0
x_19_25_3 0
x_19_25_4 0
x_19_25_5 0
x_20_21_0 -1.4754364396907249e-11
x_20_21_1 0
x_20_21_2 -1.0459244581539906e-11
x_20_21_3 3.9091507808564074e-12
x_20_21_4 1.17086502877352e-12
x_20_21_5 0
x_20_22_0 0
x_20_22_1 0
x_20_22_2 0
x_20_22_3 0
x_20_22_4 0
x_20_22_5 0
x_20_23_0 1.0657307402395898e-11
x_20_23_1 1.2159606654904564e-11
x_20_23_2 0
x_20_23_3 8.3975705349732476e-12
x_20_23_4 0
x_20_23_5 0
x_20_24_0 0
x_20_24_1 4.6747605786379154e-12
x_20_24_2 1.1411704914365828e-11
x_20_24_3 9.9999999999570888e-01
x_20_24_4 0
x_20_24_5 0
x_20_25_0 0
x_20_25_1 0
x_20_25_2 0
x_20_25_3 0
x_20_25_4 0
x_20_25_5 0
x_21_22_0 0
x_21_22_1 0
x_21_22_2 0
x_21_22_3 0
x_21_22_4 0
x_21_22_5 0
x_21_23_0 0
x_21_23_1 0
x_21_23_2 0
x_21_23_3 2.4376219710646610e-13
x_21_23_4 0
x_21_23_5 0
x_21_24_0 0
x_21_24_1 0
x_21_24_2 1.0000000000104592e+00
x_21_24_3 0
x_21_24_4 1.5971938103683918e-11
x_21_24_5 0
x_21_25_0 0
x_21_25_1 0
x_21_25_2 0
x_21_25_3 0
x_21_25_4 1.0000000000016738e+00
x_21_25_5 0
x_22_23_0 0
x_22_23_1 5.61412027977326e-12
x_22_23_2 0
x_22_23_3 5.3734794391857577e-13
x_22_23_4 -2.7024884169461160e-12
x_22_23_5 0
x_22_24_0 0
x_22_24_1 0
x_22_24_2 0
x_22_24_3 0
x_22_24_4 0
x_22_24_5 0
x_22_25_0 0
x_22_25_1 0
x_22_25_2 0
x_22_25_3 0
x_22_25_4 0
x_22_25_5 0
x_23_24_0 0
x_23_24_1 -1.6600942842615041e-11
x_23_24_2 -4.0997760741845468e-12
x_23_24_3 -2.0150547896946591e-13
x_23_24_4 0
x_23_24_5 0
x_23_25_0 0
x_23_25_1 0
x_23_25_2 0
x_23_25_3 0
x_23_25_4 0
x_23_25_5 0
x_24_25_0 0
x_24_25_1 0
x_24_25_2 9.9999999999421829e-01
x_24_25_3 9.9999999998719946e-01
x_24_25_4 1.5002502371777250e-11
x_24_25_5 0
